
set J := 1 2 3 4 5 6 7 8 9 10;
set C := 1 2 3 4;

param P: 1 2 3 4 5 6 7 8 9 10 :=
1	50 65 55 57 66 44 35 86 74 59
2	55 55 89 53 84 82 83 75 73 67
3	87 77 81 59 59 52 56 87 57 50
4	55 64 57 100 98 63 64 63 70 30;



param t: 1 2 3 4 5 6 7 8 9 10 :=
1	10 3 8 9 7 7 12 13 12 15
2	4 5 2 5 3 18 2 11 8 16
3	4 2 10 15 6 8 4 7 10 15
4	8 10 3 14 10 9 7 5 10 5;
